46603 34143 1 2 3 4 5 6 7 9 10 11 12 13 15 16 17 19 20 21 22 23 24 25 27 28 30 32 33 34 35 36 38 39 40 41 42 44 45 47 48 49 54 55 56 58 59 60 63 64 65 67 68 69 70 73 74 75 76 78 80 81 82 84 85 86 87 89 90 92 93 94 96 97 98 99 100 